285 286 287 280 281 282 279 278 288 289 290 277 276 275 274 273 292 291 293 294 295 296 270 269 272 271 268 267 266 265 264 263 262 261 260 259 258 299 298 297 321 320 319 317 318 305 306 304 303 301 302 508 507 307 506 516 515 514 517 520 521 522 523 526 491 492 525 524 493 490 529 528 527 512 513 511 510 509 237 240 243 244 242 241 300 257 256 255 253 254 252 251 250 249 248 245 247 246 239 238 236 235 234 232 233 530 531 532 533 231 230 229 228 227 189 225 226 190 191 192 193 219 218 220 221 222 224 223 217 216 215 214 213 212 211 210 209 208 207 206 205 197 196 195 194 184 185 183 181 179 180 169 171 170 172 173 174 175 177 178 182 186 188 187 176 540 538 539 537 536 535 487 534 488 489 486 485 484 483 481 482 475 476 480 479 477 478 549 548 545 546 547 544 543 103 104 105 106 107 542 541 108 109 110 111 114 115 116 128 129 130 136 135 134 133 132 131 113 112 161 162 168 163 167 166 198 199 200 201 202 204 203 165 164 154 160 155 156 159 157 158 145 144 143 142 146 153 147 148 152 149 150 151 141 140 139 137 138 69 68 70 124 125 127 126 117 122 123 71 72 65 66 67 64 62 63 61 60 59 58 57 81 82 83 56 55 53 54 52 50 51 84 85 86 87 90 89 88 80 79 78 77 76 75 74 73 119 120 121 118 95 96 97 94 93 92 91 555 45 46 47 48 49 43 44 42 39 41 40 38 37 36 35 33 34 557 556 554 553 552 99 98 102 100 101 551 550 559 558 560 561 562 563 564 565 566 567 27 26 28 29 30 32 31 22 23 25 24 21 12 13 14 15 16 11 10 9 7 8 17 18 19 20 568 569 570 474 473 472 494 495 471 470 469 468 467 466 571 573 572 6 5 0 4 1 2 3 437 438 436 435 434 433 432 430 431 429 428 427 426 425 424 423 422 421 420 419 417 418 410 411 412 356 402 401 360 359 358 357 355 354 353 352 413 414 416 415 351 350 349 348 347 362 361 363 364 346 345 365 367 368 369 370 372 371 396 395 393 394 398 397 407 399 400 403 404 405 406 408 409 384 383 385 382 386 387 388 389 390 391 392 380 381 445 444 443 442 446 447 448 449 450 451 501 500 499 461 452 453 441 440 439 454 455 456 457 458 459 460 462 463 464 465 496 497 518 519 498 502 503 504 505 308 309 310 311 312 313 316 314 315 377 378 379 376 375 374 373 322 323 324 325 326 327 328 329 366 342 343 344 341 340 330 331 332 333 339 338 337 336 335 334 283 284